33D32945 STP File, STP Format Version 1.0

SECTION Comment
Name "wrp3-23-5s"
Creator "Bernd Zey"
Problem "Stochastic Steiner Tree Problem"
# Stochastic Steiner tree problem instance, base file: wrp3-23.stp
# weight-scaling on, factor=0.010000 (for "big-M" edges)
# parameters:
# distribution=equal
# selectRootRandomly=0
# probabilityTerminal=33
# probabilityNonTerminal=5
# 2nd stage edge-costs in [1.1000c_e, 1.3000c_e]
END

SECTION Graph
Nodes 132
Edges 230
Scenarios 5
Root 114
E 1 21 7
E 1 104 3
E 1 106 3
E 2 22 7
E 2 109 3
E 3 107 10
E 3 109 1
E 4 5 10
E 4 25 9
E 4 98 3
E 4 100 3
E 5 26 9
E 5 103 3
E 6 99 12
E 6 103 1
E 6 105 6
E 7 8 10
E 7 29 9
E 7 91 3
E 7 93 3
E 8 30 9
E 8 96 3
E 9 92 12
E 9 96 1
E 9 97 6
E 10 11 10
E 10 35 13
E 10 85 3
E 11 36 13
E 11 89 3
E 12 89 1
E 12 90 6
E 13 14 1
E 13 62 1
E 14 64 1
E 14 68 3
E 15 76 1
E 15 79 2
E 16 78 1
E 16 79 1
E 17 18 10
E 17 108 7
E 18 20 7
E 19 104 9
E 19 108 3
E 20 108 10
E 20 109 6
E 21 22 10
E 21 101 7
E 21 102 3
E 22 24 7
E 22 107 1
E 23 98 9
E 23 101 3
E 23 102 7
E 24 101 10
E 24 103 6
E 24 105 1
E 25 26 10
E 25 94 7
E 25 95 3
E 26 28 7
E 26 99 1
E 27 91 9
E 27 94 3
E 27 95 7
E 28 94 10
E 28 96 6
E 28 97 1
E 29 30 10
E 29 87 7
E 29 88 3
E 30 32 7
E 30 92 1
E 31 33 4
E 31 87 3
E 31 88 7
E 32 34 4
E 32 87 10
E 32 90 1
E 33 84 20
E 33 86 3
E 34 86 10
E 34 89 2
E 35 36 10
E 35 83 14
E 35 84 1
E 36 38 14
E 37 81 2
E 37 83 1
E 37 84 14
E 38 40 2
E 38 83 10
E 39 40 10
E 39 41 1
E 39 81 1
E 39 83 2
E 40 42 1
E 41 42 10
E 41 75 9
E 41 80 1
E 42 82 9
E 43 68 1
E 43 71 1
E 44 74 10
E 44 78 3
E 44 82 1
E 45 46 10
E 45 47 1
E 45 59 1
E 45 63 6
E 46 48 1
E 46 76 6
E 47 48 10
E 47 57 1
E 47 58 1
E 48 50 1
E 49 52 1
E 49 53 1
E 50 58 10
E 51 53 89
E 52 54 1
E 52 55 1
E 53 55 1
E 54 56 1
E 54 57 1
E 55 57 1
E 55 58 1
E 56 59 1
E 56 60 6
E 57 59 1
E 59 61 6
E 60 61 1
E 60 62 2
E 61 63 1
E 61 65 2
E 62 64 1
E 62 65 1
E 63 67 2
E 63 76 10
E 64 66 1
E 64 70 3
E 65 66 1
E 65 67 1
E 66 69 1
E 66 72 3
E 67 69 1
E 67 77 10
E 68 70 1
E 69 74 3
E 69 78 10
E 70 71 1
E 70 72 1
E 71 73 1
E 72 73 1
E 72 74 1
E 73 75 1
E 73 80 9
E 74 75 1
E 75 82 10
E 76 77 2
E 77 78 1
E 77 79 1
E 80 81 1
E 85 86 2
E 85 89 10
E 86 87 4
E 88 91 9
E 90 92 7
E 93 94 6
E 93 96 10
E 95 98 9
E 97 99 7
E 100 101 6
E 100 103 10
E 102 104 7
E 105 107 7
E 106 108 6
E 106 109 10
E 1 110 1000
E 2 110 1000
E 3 110 1000
E 4 111 1000
E 5 111 1000
E 6 111 1000
E 7 112 1000
E 8 112 1000
E 9 112 1000
E 10 113 1000
E 11 113 1000
E 12 113 1000
E 13 114 1000
E 14 114 1000
E 15 114 1000
E 16 114 1000
E 17 115 1000
E 18 115 1000
E 19 116 1000
E 20 116 1000
E 21 117 1000
E 22 117 1000
E 23 118 1000
E 24 118 1000
E 25 119 1000
E 26 119 1000
E 27 120 1000
E 28 120 1000
E 29 121 1000
E 30 121 1000
E 31 122 1000
E 32 122 1000
E 33 123 1000
E 34 123 1000
E 35 124 1000
E 36 124 1000
E 37 125 1000
E 38 125 1000
E 39 126 1000
E 40 126 1000
E 41 127 1000
E 42 127 1000
E 43 128 1000
E 44 128 1000
E 45 129 1000
E 46 129 1000
E 47 130 1000
E 48 130 1000
E 49 131 1000
E 50 131 1000
E 51 132 1000
END

SECTION StochasticProbabilities
SP 0.19650 0.21430 0.21430 0.17850 0.19640
END

SECTION StochasticWeights
SE 8 9 8 8 9 
SE 4 4 4 4 4 
SE 4 4 4 4 4 
SE 8 8 9 9 9 
SE 4 4 4 4 4 
SE 11 12 11 13 13 
SE 2 2 2 2 2 
SE 13 11 12 13 12 
SE 10 11 10 10 10 
SE 4 4 4 4 4 
SE 4 4 4 4 4 
SE 10 11 10 10 10 
SE 4 4 4 4 4 
SE 15 14 15 14 15 
SE 2 2 2 2 2 
SE 7 7 7 7 7 
SE 13 13 11 12 12 
SE 11 10 10 10 10 
SE 4 4 4 4 4 
SE 4 4 4 4 4 
SE 10 10 10 10 11 
SE 4 4 4 4 4 
SE 15 15 14 15 14 
SE 2 2 2 2 2 
SE 7 7 7 7 7 
SE 12 11 13 11 11 
SE 15 15 16 15 16 
SE 4 4 4 4 4 
SE 15 15 15 16 15 
SE 4 4 4 4 4 
SE 2 2 2 2 2 
SE 7 7 7 7 7 
SE 2 2 2 2 2 
SE 2 2 2 2 2 
SE 2 2 2 2 2 
SE 4 4 4 4 4 
SE 2 2 2 2 2 
SE 3 3 3 3 3 
SE 2 2 2 2 2 
SE 2 2 2 2 2 
SE 12 11 11 13 13 
SE 9 8 8 8 9 
SE 9 8 8 8 8 
SE 11 10 10 10 11 
SE 4 4 4 4 4 
SE 13 13 11 12 13 
SE 7 7 7 7 7 
SE 13 11 12 11 13 
SE 8 8 9 9 9 
SE 4 4 4 4 4 
SE 8 8 9 8 8 
SE 2 2 2 2 2 
SE 10 11 10 10 11 
SE 4 4 4 4 4 
SE 9 9 9 8 9 
SE 12 13 12 13 11 
SE 7 7 7 7 7 
SE 2 2 2 2 2 
SE 13 12 13 11 11 
SE 8 8 8 9 8 
SE 4 4 4 4 4 
SE 8 8 9 8 9 
SE 2 2 2 2 2 
SE 11 10 10 11 10 
SE 4 4 4 4 4 
SE 8 8 8 9 9 
SE 12 13 13 11 13 
SE 7 7 7 7 7 
SE 2 2 2 2 2 
SE 13 13 13 12 13 
SE 8 8 8 8 8 
SE 4 4 4 4 4 
SE 9 8 8 8 8 
SE 2 2 2 2 2 
SE 5 5 5 5 5 
SE 4 4 4 4 4 
SE 8 8 8 8 9 
SE 5 5 5 5 5 
SE 13 12 11 12 12 
SE 2 2 2 2 2 
SE 23 24 22 22 25 
SE 4 4 4 4 4 
SE 11 12 12 12 12 
SE 3 3 3 3 3 
SE 12 13 13 13 12 
SE 18 16 16 17 18 
SE 2 2 2 2 2 
SE 17 16 16 16 16 
SE 3 3 3 3 3 
SE 2 2 2 2 2 
SE 17 16 18 18 16 
SE 3 3 3 3 3 
SE 12 12 13 11 13 
SE 11 13 12 11 12 
SE 2 2 2 2 2 
SE 2 2 2 2 2 
SE 3 3 3 3 3 
SE 2 2 2 2 2 
SE 13 13 12 12 13 
SE 10 11 10 11 10 
SE 2 2 2 2 2 
SE 10 10 10 10 11 
SE 2 2 2 2 2 
SE 2 2 2 2 2 
SE 11 13 11 12 13 
SE 4 4 4 4 4 
SE 2 2 2 2 2 
SE 12 11 13 11 12 
SE 2 2 2 2 2 
SE 2 2 2 2 2 
SE 7 7 7 7 7 
SE 2 2 2 2 2 
SE 7 7 7 7 7 
SE 13 12 13 12 11 
SE 2 2 2 2 2 
SE 2 2 2 2 2 
SE 2 2 2 2 2 
SE 2 2 2 2 2 
SE 2 2 2 2 2 
SE 11 11 11 12 11 
SE 101 100 112 107 101 
SE 2 2 2 2 2 
SE 2 2 2 2 2 
SE 2 2 2 2 2 
SE 2 2 2 2 2 
SE 2 2 2 2 2 
SE 2 2 2 2 2 
SE 2 2 2 2 2 
SE 2 2 2 2 2 
SE 7 7 7 7 7 
SE 2 2 2 2 2 
SE 7 7 7 7 7 
SE 2 2 2 2 2 
SE 3 3 3 3 3 
SE 2 2 2 2 2 
SE 3 3 3 3 3 
SE 2 2 2 2 2 
SE 2 2 2 2 2 
SE 3 3 3 3 3 
SE 12 11 12 13 11 
SE 2 2 2 2 2 
SE 4 4 4 4 4 
SE 2 2 2 2 2 
SE 2 2 2 2 2 
SE 2 2 2 2 2 
SE 4 4 4 4 4 
SE 2 2 2 2 2 
SE 13 12 13 12 13 
SE 2 2 2 2 2 
SE 4 4 4 4 4 
SE 12 13 13 11 11 
SE 2 2 2 2 2 
SE 2 2 2 2 2 
SE 2 2 2 2 2 
SE 2 2 2 2 2 
SE 2 2 2 2 2 
SE 2 2 2 2 2 
SE 10 10 10 10 11 
SE 2 2 2 2 2 
SE 11 12 13 11 12 
SE 3 3 3 3 3 
SE 2 2 2 2 2 
SE 2 2 2 2 2 
SE 2 2 2 2 2 
SE 3 3 3 3 3 
SE 13 12 12 13 13 
SE 5 5 5 5 5 
SE 11 11 11 11 11 
SE 8 8 8 8 8 
SE 7 7 7 7 7 
SE 13 13 12 11 13 
SE 10 10 11 10 10 
SE 8 9 8 9 9 
SE 7 7 7 7 7 
SE 11 13 13 13 13 
SE 8 8 8 9 9 
SE 8 9 8 8 8 
SE 7 7 7 7 7 
SE 12 11 11 11 11 
SE 1171 1262 1261 1253 1237 
SE 1170 1190 1169 1247 1129 
SE 1207 1240 1235 1223 1106 
SE 1253 1285 1278 1105 1167 
SE 1102 1115 1123 1259 1235 
SE 1299 1190 1107 1273 1241 
SE 1117 1235 1160 1230 1167 
SE 1264 1161 1211 1244 1124 
SE 1237 1130 1159 1143 1180 
SE 1106 1149 1147 1176 1196 
SE 1115 1283 1247 1129 1135 
SE 1265 1285 1105 1240 1185 
SE 1116 1227 1198 1141 1282 
SE 1255 1222 1143 1148 1169 
SE 1192 1103 1256 1146 1237 
SE 1134 1173 1152 1223 1159 
SE 1199 1124 1209 1177 1266 
SE 1245 1249 1137 1176 1160 
SE 1253 1152 1202 1212 1200 
SE 1118 1288 1286 1222 1151 
SE 1258 1112 1126 1148 1223 
SE 1115 1219 1193 1267 1275 
SE 1156 1107 1184 1157 1272 
SE 1193 1164 1119 1133 1176 
SE 1172 1283 1171 1271 1116 
SE 1269 1249 1143 1214 1176 
SE 1266 1184 1119 1136 1256 
SE 1120 1296 1208 1105 1126 
SE 1280 1174 1148 1230 1183 
SE 1140 1114 1276 1185 1178 
SE 1274 1257 1260 1250 1252 
SE 1150 1136 1259 1133 1270 
SE 1160 1154 1296 1283 1158 
SE 1181 1146 1194 1122 1258 
SE 1254 1271 1236 1138 1287 
SE 1112 1169 1118 1241 1243 
SE 1129 1187 1202 1296 1199 
SE 1271 1155 1247 1218 1153 
SE 1226 1180 1179 1134 1268 
SE 1217 1217 1211 1289 1229 
SE 1278 1204 1244 1294 1249 
SE 1191 1112 1125 1113 1253 
SE 1131 1201 1166 1178 1264 
SE 1294 1281 1293 1134 1181 
SE 1145 1234 1168 1161 1121 
SE 1223 1154 1121 1224 1200 
SE 1278 1153 1144 1208 1240 
SE 1194 1258 1277 1238 1238 
SE 1168 1102 1108 1250 1210 
SE 1230 1206 1196 1119 1290 
SE 1213 1245 1213 1109 1239 
END

SECTION StochasticTerminals
ST 1 0 1 0 0 0 
ST 2 0 0 0 0 0 
ST 3 1 0 0 0 0 
ST 4 0 0 0 0 0 
ST 5 0 0 0 1 0 
ST 6 0 0 0 0 0 
ST 7 0 0 0 0 0 
ST 8 0 0 0 0 0 
ST 9 0 0 0 0 0 
ST 10 0 0 0 0 0 
ST 11 0 0 0 0 0 
ST 12 0 0 0 0 0 
ST 13 0 0 0 0 1 
ST 14 0 0 0 0 0 
ST 15 0 0 0 0 0 
ST 16 0 0 0 0 0 
ST 17 0 0 0 0 0 
ST 18 0 0 0 0 0 
ST 19 1 0 0 0 0 
ST 20 0 0 0 0 0 
ST 21 0 0 1 0 0 
ST 22 0 0 0 0 0 
ST 23 0 0 0 0 0 
ST 24 0 0 0 0 0 
ST 25 0 0 0 0 0 
ST 26 0 0 0 0 0 
ST 27 0 0 0 0 0 
ST 28 0 0 0 0 0 
ST 29 0 0 0 0 0 
ST 30 0 0 0 0 0 
ST 31 1 0 0 0 0 
ST 32 0 0 0 0 0 
ST 33 0 0 0 1 0 
ST 34 1 0 0 0 0 
ST 35 0 0 0 0 0 
ST 36 0 0 0 0 0 
ST 37 0 0 0 0 0 
ST 38 0 0 0 0 0 
ST 39 0 0 0 0 0 
ST 40 0 0 0 0 0 
ST 41 0 0 0 0 1 
ST 42 0 0 0 0 0 
ST 43 0 1 0 0 0 
ST 44 0 0 0 0 0 
ST 45 0 0 0 0 0 
ST 46 0 0 0 0 1 
ST 47 0 0 0 0 0 
ST 48 0 0 0 0 0 
ST 49 0 0 0 0 0 
ST 50 0 0 0 0 0 
ST 51 0 0 0 0 0 
ST 52 0 0 0 0 0 
ST 53 0 0 0 0 0 
ST 54 0 0 0 0 0 
ST 55 0 0 0 0 0 
ST 56 0 0 0 0 0 
ST 57 0 0 1 0 0 
ST 58 0 0 0 0 0 
ST 59 0 0 0 0 0 
ST 60 0 0 0 0 1 
ST 61 0 0 0 0 0 
ST 62 0 0 0 0 0 
ST 63 0 0 0 0 0 
ST 64 0 0 0 0 0 
ST 65 0 0 0 0 0 
ST 66 0 0 0 0 0 
ST 67 0 0 0 0 0 
ST 68 0 0 0 0 0 
ST 69 0 0 0 0 0 
ST 70 0 0 1 0 0 
ST 71 0 0 0 0 0 
ST 72 0 0 0 0 0 
ST 73 0 0 0 0 0 
ST 74 0 0 0 0 0 
ST 75 0 1 0 0 0 
ST 76 0 0 0 0 0 
ST 77 1 0 0 0 0 
ST 78 0 0 0 0 0 
ST 79 0 0 0 0 0 
ST 80 0 0 1 0 0 
ST 81 0 0 0 0 0 
ST 82 0 0 0 0 0 
ST 83 0 0 0 1 0 
ST 84 0 0 0 0 0 
ST 85 0 0 0 0 0 
ST 86 0 0 0 0 0 
ST 87 0 0 0 0 0 
ST 88 0 0 0 0 0 
ST 89 0 0 0 0 0 
ST 90 0 0 0 0 0 
ST 91 0 0 0 0 0 
ST 92 1 0 0 0 0 
ST 93 0 0 0 0 0 
ST 94 1 0 0 0 0 
ST 95 0 0 0 0 0 
ST 96 0 1 0 0 0 
ST 97 0 0 0 0 0 
ST 98 0 0 0 0 0 
ST 99 0 0 0 0 0 
ST 100 0 0 0 0 0 
ST 101 0 0 0 0 0 
ST 102 0 0 0 0 0 
ST 103 0 0 0 0 1 
ST 104 0 0 0 0 0 
ST 105 0 0 0 0 0 
ST 106 0 0 0 0 0 
ST 107 0 1 0 0 1 
ST 108 0 0 0 0 0 
ST 109 0 0 0 0 0 
ST 110 0 0 1 0 1 
ST 111 0 0 0 0 0 
ST 112 1 0 1 1 0 
ST 113 0 0 1 0 0 
ST 114 1 1 1 1 1 
ST 115 0 0 0 1 0 
ST 116 0 1 0 0 0 
ST 117 0 0 0 1 0 
ST 118 0 1 1 0 0 
ST 119 0 0 1 0 0 
ST 120 1 1 1 0 1 
ST 121 1 0 1 0 0 
ST 122 0 0 0 1 0 
ST 123 0 1 1 1 0 
ST 124 1 1 0 1 1 
ST 125 0 0 0 0 0 
ST 126 0 1 1 0 0 
ST 127 0 0 0 0 0 
ST 128 0 0 1 0 1 
ST 129 1 1 1 1 0 
ST 130 0 1 1 1 1 
ST 131 1 1 1 1 0 
ST 132 0 0 0 0 0 
END


SECTION Coordinates
DD 1 13645 14103
DD 2 13655 14103
DD 3 13656 14106
DD 4 13645 14080
DD 5 13655 14080
DD 6 13656 14083
DD 7 13645 14055
DD 8 13655 14055
DD 9 13656 14058
DD 10 13645 14030
DD 11 13655 14030
DD 12 13656 14033
DD 13 13642 13986
DD 14 13642 13987
DD 15 13656 13984
DD 16 13656 13987
DD 17 13645 14119
DD 18 13655 14119
DD 19 13642 14112
DD 20 13655 14112
DD 21 13645 14096
DD 22 13655 14096
DD 23 13642 14089
DD 24 13655 14089
DD 25 13645 14071
DD 26 13655 14071
DD 27 13642 14064
DD 28 13655 14064
DD 29 13645 14046
DD 30 13655 14046
DD 31 13642 14039
DD 32 13655 14039
DD 33 13642 14035
DD 34 13655 14035
DD 35 13645 14017
DD 36 13655 14017
DD 37 13644 14003
DD 38 13655 14003
DD 39 13645 14001
DD 40 13655 14001
DD 41 13645 14000
DD 42 13655 14000
DD 43 13642 13991
DD 44 13655 13990
DD 45 13645 13978
DD 46 13655 13978
DD 47 13645 13977
DD 48 13655 13977
DD 49 13643 13975
DD 50 13655 13976
DD 51 13644 13886
DD 52 13643 13976
DD 53 13644 13975
DD 54 13643 13977
DD 55 13644 13976
DD 56 13643 13978
DD 57 13644 13977
DD 58 13645 13976
DD 59 13644 13978
DD 60 13643 13984
DD 61 13644 13984
DD 62 13643 13986
DD 63 13645 13984
DD 64 13643 13987
DD 65 13644 13986
DD 66 13644 13987
DD 67 13645 13986
DD 68 13642 13990
DD 69 13645 13987
DD 70 13643 13990
DD 71 13643 13991
DD 72 13644 13990
DD 73 13644 13991
DD 74 13645 13990
DD 75 13645 13991
DD 76 13655 13984
DD 77 13655 13986
DD 78 13655 13987
DD 79 13656 13986
DD 80 13644 14000
DD 81 13644 14001
DD 82 13655 13991
DD 83 13645 14003
DD 84 13644 14017
DD 85 13645 14033
DD 86 13645 14035
DD 87 13645 14039
DD 88 13642 14046
DD 89 13655 14033
DD 90 13656 14039
DD 91 13642 14055
DD 92 13656 14046
DD 93 13645 14058
DD 94 13645 14064
DD 95 13642 14071
DD 96 13655 14058
DD 97 13656 14064
DD 98 13642 14080
DD 99 13656 14071
DD 100 13645 14083
DD 101 13645 14089
DD 102 13642 14096
DD 103 13655 14083
DD 104 13642 14103
DD 105 13656 14089
DD 106 13645 14106
DD 107 13656 14096
DD 108 13645 14112
DD 109 13655 14106
DD 110 13645 14103
DD 111 13655 14103
DD 112 13656 14106
DD 113 13645 14080
DD 114 13655 14080
DD 115 13656 14083
DD 116 13645 14055
DD 117 13655 14055
DD 118 13656 14058
DD 119 13645 14030
DD 120 13655 14030
DD 121 13656 14033
DD 122 13642 13986
DD 123 13642 13987
DD 124 13656 13984
DD 125 13656 13987
DD 126 13645 14119
DD 127 13655 14119
DD 128 13642 14112
DD 129 13655 14112
DD 130 13645 14096
DD 131 13655 14096
DD 132 13642 14089
END

EOF
